/*********************************************
 * OPL 12.10.0.0 Data
 * Author: tt_sina
 * Creation Date: Dec 2, 2021 at 4:21:21 PM
 *********************************************/
n=5;
d=[[0 132 217 164 58]
   [132 0 290 201 79]
   [217 290 0 113 303]
   [164 201 113 0 196]
   [58 79 303 196 0]];